94	22	4	34	
12	9	10	10

0	0	0	0	0	0	4	1	2	3	4
1	7	0	0	0	7	1	7
2	8	0	0	0	6	1	6
3	0	0	6	0	2	1	5
4	0	0	2	0	9	1	16
5	0	0	1	0	9	1	8
6	7	0	0	0	2	1	11
7	6	0	0	0	1	1	10
8	5	0	0	0	2	1	9
9	2	0	0	0	4	2	12	13
10	0	0	0	2	8	1	15
11	0	0	3	0	3	1	12
12	0	9	0	0	4	1	17
13	2	0	0	0	6	1	14
14	0	0	2	0	4	1	19
15	0	0	8	0	3	1	18
16	0	1	0	0	1	1	20
17	0	0	8	0	6	1	21
18	0	0	0	10	4	1	21
19	0	0	10	0	4	1	21
20	0	0	0	8	9	1	21
21	0	0	0	0	0	0
